20
10.0
0 19 9.16 0.66
1 18 47.94 0.94
2 17 14.53 0.91
3 16 10.12 1.02
4 15 39.73 1.35
5 14 38.86 1.01
6 13 7.23 0.98
7 12 11.75 1.22
8 11 39.82 1.17
9 10 52.3 1.35
10 9 40.78 1.04
11 8 43.5 1.76
12 7 14.71 0.69
13 6 36.0 0.77
14 5 42.2 0.56
15 4 35.5 0.95
16 3 35.0 0.8
17 2 25.0 1.15
18 1 3.0 1.9
